NAME : n60w60.004.639.tour
COMMENT : Length = 639
COMMENT : Found by LKH [Keld Helsgaun] Tue Nov  7 19:35:18 2017
TYPE : TOUR
DIMENSION : 61
TOUR_SECTION
1
50
35
46
42
24
28
3
32
13
37
38
7
55
12
6
15
51
2
20
34
5
14
27
57
54
19
25
33
59
43
53
9
4
44
41
47
23
16
45
48
30
18
22
21
52
49
26
8
11
40
58
56
10
36
31
39
17
61
60
29
-1
EOF
